
Gurobi 8.0.0 (win64, Python) logging started 11/13/20 14:02:54


--------------------------------------------
Warning: your license will expire in 4 days
--------------------------------------------

Academic license - for non-commercial use only
